NAME : pairopt.-189381.tour
COMMENT : Length = -189381
COMMENT : Found by LKH-3 [Keld Helsgaun] Mon Apr 14 15:29:02 2025
TYPE : TOUR
DIMENSION : 15
TOUR_SECTION
1
3
14
12
15
2
5
13
9
7
6
8
10
11
4
-1
EOF
